NAME : tsp_353_sol.txt
COMMENT : OR-Tools Guided Local Search
TYPE : TOUR
DIMENSION : 50
COST : 5400
STATUS : ROUTING_SUCCESS
GAP : 0.00% (Reference Solution)
TOUR_SECTION
1
4
8
46
29
47
26
19
22
21
36
25
42
50
3
14
35
30
33
34
11
28
24
12
37
20
40
32
16
48
13
49
44
15
27
5
2
7
31
41
43
39
17
23
10
18
6
9
38
45
-1
